+ srun -p rag -N 1 --ntasks-per-node=1 --mem 256G -K -w g3017 python search_algo/main.py
srun: job 12467 queued and waiting for resources
srun: job 12467 has been allocated resources
[INFO]: fwd schedules
schedule_squeue_num[fwd]: 4
schedule:
[[[[ 0 -1 -1 -1 -1 -1 -1 -1]
   [ 1  1 -1 -1 -1 -1 -1 -1]
   [ 2  2  2 -1 -1 -1 -1 -1]
   [ 3  3  3  3 -1 -1 -1 -1]
   [ 3  3  3  3  3 -1 -1 -1]
   [ 2  2  2  2  2  2 -1 -1]
   [ 1  1  1  1  1  1  1 -1]
   [ 0  0  0  0  0  0  0  0]]]]
fob: 0, get_e2e_time(): [0.0004682 0.001161 ], get_absolute_cc_time:
[[0.000387  0.0004682]
 [0.001161  0.0007023]]
schedule:
[[[[ 0 -1 -1 -1]
   [ 0  1 -1 -1]
   [ 0  1  2 -1]
   [ 0  1  2  3]]]]
fob: 0, get_e2e_time(): [0.00046  0.001348], get_absolute_cc_time:
[[0.00046    0.00011705]
 [0.001348   0.00035115]]
schedule:
[[[[ 0 -1 -1 -1]
   [ 1  1 -1 -1]
   [ 2  2  2 -1]
   [ 3  3  3  3]]]]
fob: 0, get_e2e_time(): [0.00046  0.001348], get_absolute_cc_time:
[[0.00046   0.0002341]
 [0.001348  0.0002341]]
schedule:
[[[[ 0 -1 -1 -1]
   [ 0  1 -1 -1]
   [ 0  1  2 -1]
   [ 1  2  2  3]]]]
fob: 0, get_e2e_time(): [0.000345 0.001011], get_absolute_cc_time:
[[0.000345   0.00019508]
 [0.001011   0.00042918]]
schedule:
[[[[ 0 -1 -1 -1]
   [ 0  1 -1 -1]
   [ 0  1  2 -1]
   [ 1  2  2  3]]]]
fob: 0, get_e2e_time(): [0.000345 0.001011], get_absolute_cc_time:
[[0.000345   0.00019508]
 [0.001011   0.00042918]]
Welcome to the CBC MILP Solver 
Version: 2.10.3 
Build Date: Dec 15 2019 

command line - /home/zhaijidong/miniconda3/envs/yhy_easycontext/lib/python3.10/site-packages/pulp/solverdir/cbc/linux/64/cbc ./search_algo/tmp/9d06c541ef0042738e2484fc7a4ed47d-pulp.mps -timeMode elapsed -branch -printingOptions all -solution ./search_algo/tmp/9d06c541ef0042738e2484fc7a4ed47d-pulp.sol (default strategy 1)
At line 2 NAME          MODEL
At line 3 ROWS
At line 109 COLUMNS
At line 455 RHS
At line 560 BOUNDS
At line 595 ENDATA
Problem MODEL has 104 rows, 57 columns and 276 elements
Coin0008I MODEL read with 0 errors
Option for timeMode changed from cpu to elapsed
Continuous objective value is 0.000269517 - 0.00 seconds
Cgl0004I processed model has 103 rows, 56 columns (34 integer (34 of which binary)) and 274 elements
Cbc0038I Initial state - 30 integers unsatisfied sum - 0.00973488
Cbc0038I Pass   1: suminf.    0.00000 (0) obj. 0.00105609 iterations 35
Cbc0038I Solution found of 0.00105609
Cbc0038I Relaxing continuous gives 0.00105609
Cbc0038I Before mini branch and bound, 4 integers at bound fixed and 1 continuous
Cbc0038I Full problem 103 rows 56 columns, reduced to 98 rows 49 columns
Cbc0038I Mini branch and bound improved solution from 0.00105609 to 0.000402056 (0.02 seconds)
Cbc0038I Round again with cutoff of 0.000379802
Cbc0038I Pass   2: suminf.    0.00586 (23) obj. 0.000379802 iterations 29
Cbc0038I Pass   3: suminf.    0.00586 (23) obj. 0.000379802 iterations 0
Cbc0038I Pass   4: suminf.    0.00666 (21) obj. 0.000379802 iterations 8
Cbc0038I Pass   5: suminf.    0.00666 (21) obj. 0.000379802 iterations 0
Cbc0038I Pass   6: suminf.    0.00666 (21) obj. 0.000379802 iterations 0
Cbc0038I Pass   7: suminf.    0.00719 (21) obj. 0.000379802 iterations 17
Cbc0038I Pass   8: suminf.    0.00719 (21) obj. 0.000379802 iterations 0
Cbc0038I Pass   9: suminf.    0.00719 (21) obj. 0.000379802 iterations 0
Cbc0038I Pass  10: suminf.    0.00592 (19) obj. 0.000379802 iterations 18
Cbc0038I Pass  11: suminf.    0.00592 (19) obj. 0.000379802 iterations 0
Cbc0038I Pass  12: suminf.    0.00592 (19) obj. 0.000379802 iterations 0
Cbc0038I Pass  13: suminf.    0.00442 (14) obj. 0.000379802 iterations 11
Cbc0038I Pass  14: suminf.    0.00442 (14) obj. 0.000379802 iterations 0
Cbc0038I Pass  15: suminf.    0.00442 (14) obj. 0.000379802 iterations 0
Cbc0038I Pass  16: suminf.    0.00546 (15) obj. 0.000379802 iterations 25
Cbc0038I Pass  17: suminf.    0.00546 (15) obj. 0.000379802 iterations 0
Cbc0038I Pass  18: suminf.    0.00546 (15) obj. 0.000379802 iterations 0
Cbc0038I Pass  19: suminf.    0.00878 (21) obj. 0.000379802 iterations 11
Cbc0038I Pass  20: suminf.    0.00878 (21) obj. 0.000379802 iterations 0
Cbc0038I Pass  21: suminf.    0.00878 (21) obj. 0.000379802 iterations 0
Cbc0038I Pass  22: suminf.    0.01129 (25) obj. 0.000379802 iterations 24
Cbc0038I Pass  23: suminf.    0.01129 (25) obj. 0.000379802 iterations 0
Cbc0038I Pass  24: suminf.    0.01129 (25) obj. 0.000379802 iterations 0
Cbc0038I Pass  25: suminf.    0.00826 (20) obj. 0.000379802 iterations 28
Cbc0038I Pass  26: suminf.    0.00716 (19) obj. 0.000379802 iterations 1
Cbc0038I Pass  27: suminf.    0.00716 (19) obj. 0.000379802 iterations 0
Cbc0038I Pass  28: suminf.    0.00854 (19) obj. 0.000379802 iterations 14
Cbc0038I Pass  29: suminf.    0.00744 (18) obj. 0.000379802 iterations 1
Cbc0038I Pass  30: suminf.    0.00744 (18) obj. 0.000379802 iterations 0
Cbc0038I Pass  31: suminf.    0.00776 (18) obj. 0.000379802 iterations 12
Cbc0038I No solution found this major pass
Cbc0038I Before mini branch and bound, 0 integers at bound fixed and 0 continuous
Cbc0038I Full problem 103 rows 56 columns, reduced to 103 rows 56 columns
Cbc0038I Mini branch and bound did not improve solution (0.03 seconds)
Cbc0038I After 0.03 seconds - Feasibility pump exiting with objective of 0.000402056 - took 0.02 seconds
Cbc0012I Integer solution of 0.00040205605 found by feasibility pump after 0 iterations and 0 nodes (0.03 seconds)
Cbc0006I The LP relaxation is infeasible or too expensive
Cbc0013I At root node, 0 cuts changed objective from 0.00026951697 to 0.00026951697 in 1 passes
Cbc0014I Cut generator 0 (Probing) - 2 row cuts average 1.0 elements, 7 column cuts (7 active)  in 0.000 seconds - new frequency is 1
Cbc0014I Cut generator 1 (Gomory) - 0 row cuts average 0.0 elements, 0 column cuts (0 active)  in 0.000 seconds - new frequency is -100
Cbc0014I Cut generator 2 (Knapsack) - 0 row cuts average 0.0 elements, 0 column cuts (0 active)  in 0.000 seconds - new frequency is -100
Cbc0014I Cut generator 3 (Clique) - 0 row cuts average 0.0 elements, 0 column cuts (0 active)  in 0.000 seconds - new frequency is -100
Cbc0014I Cut generator 4 (MixedIntegerRounding2) - 0 row cuts average 0.0 elements, 0 column cuts (0 active)  in 0.000 seconds - new frequency is -100
Cbc0014I Cut generator 5 (FlowCover) - 0 row cuts average 0.0 elements, 0 column cuts (0 active)  in 0.000 seconds - new frequency is -100
Cbc0014I Cut generator 6 (TwoMirCuts) - 0 row cuts average 0.0 elements, 0 column cuts (0 active)  in 0.000 seconds - new frequency is -100
Cbc0014I Cut generator 7 (ZeroHalf) - 0 row cuts average 0.0 elements, 0 column cuts (0 active)  in 0.000 seconds - new frequency is -100
Cbc0001I Search completed - best objective 0.0004020560452714725, took 0 iterations and 0 nodes (0.03 seconds)
Cbc0035I Maximum depth 0, 0 variables fixed on reduced cost
Cuts at root node changed objective from 0.000269517 to 0.000269517
Probing was tried 1 times and created 9 cuts of which 0 were active after adding rounds of cuts (0.000 seconds)
Gomory was tried 0 times and created 0 cuts of which 0 were active after adding rounds of cuts (0.000 seconds)
Knapsack was tried 0 times and created 0 cuts of which 0 were active after adding rounds of cuts (0.000 seconds)
Clique was tried 0 times and created 0 cuts of which 0 were active after adding rounds of cuts (0.000 seconds)
MixedIntegerRounding2 was tried 0 times and created 0 cuts of which 0 were active after adding rounds of cuts (0.000 seconds)
FlowCover was tried 0 times and created 0 cuts of which 0 were active after adding rounds of cuts (0.000 seconds)
TwoMirCuts was tried 0 times and created 0 cuts of which 0 were active after adding rounds of cuts (0.000 seconds)
ZeroHalf was tried 0 times and created 0 cuts of which 0 were active after adding rounds of cuts (0.000 seconds)

Result - Optimal solution found

Objective value:                0.00040206
Enumerated nodes:               0
Total iterations:               0
Time (CPU seconds):             0.02
Time (Wallclock seconds):       0.03

Option for printingOptions changed from normal to all
Total time (CPU seconds):       0.02   (Wallclock seconds):       0.03

TOT_TIME_UP: 0.34500000765547156
(0, 0, 0, 0, 0): 0.000e+00, 1.150e-04, 1.150e-04
(0, 0, 1, 0, 0): 2.300e-04, 1.150e-04, 3.450e-04
(0, 0, 1, 1, 1): 0.000e+00, 1.150e-04, 1.150e-04
(0, 0, 2, 0, 0): 1.150e-04, 1.150e-04, 2.300e-04
(0, 0, 2, 1, 1): 1.150e-04, 1.150e-04, 2.300e-04
(0, 0, 2, 2, 2): 2.871e-04, 1.150e-04, 4.021e-04
(0, 0, 3, 0, 1): 2.300e-04, 1.150e-04, 3.450e-04
(0, 0, 3, 1, 2): 1.721e-04, 1.150e-04, 2.871e-04
(0, 0, 3, 2, 2): 5.706e-05, 1.150e-04, 1.721e-04
(0, 0, 3, 3, 3): 0.000e+00, 1.150e-04, 1.150e-04
(0, 0, 1, 1, 0, 'i', 'r'): 0.000e+00, 5.706e-05, 5.706e-05
(0, 0, 1, 0, 1, 'o', 'r'): 3.450e-04, 5.706e-05, 4.021e-04
(0, 0, 2, 2, 0, 'i', 'r'): 5.706e-05, 5.706e-05, 1.141e-04
(0, 0, 2, 0, 2, 'o', 'r'): 2.879e-04, 5.706e-05, 3.450e-04
(0, 0, 2, 2, 1, 'i', 'r'): 0.000e+00, 5.706e-05, 5.706e-05
(0, 0, 2, 1, 2, 'o', 'r'): 2.300e-04, 5.706e-05, 2.871e-04
(0, 0, 3, 3, 1, 'i', 'r'): 5.706e-05, 5.706e-05, 1.141e-04
(0, 0, 3, 1, 3, 'o', 'r'): 3.450e-04, 5.706e-05, 4.021e-04
(0, 0, 3, 3, 2, 'i', 'r'): 0.000e+00, 5.706e-05, 5.706e-05
(0, 0, 3, 2, 3, 'o', 'r'): 2.879e-04, 5.706e-05, 3.450e-04
(0, 0, 0, 0, 1, 'i', 'c'): 1.141e-04, 9.746e-05, 2.116e-04
(0, 0, 1, 1, 2, 'i', 'c'): 5.706e-05, 9.746e-05, 1.545e-04
Streams:
gpu0, comp: 3
(0, 0, 0, 0, 0): 0.000e+00, 1.150e-04, 1.150e-04
(0, 0, 2, 0, 0): 1.150e-04, 1.150e-04, 2.300e-04
(0, 0, 1, 0, 0): 2.300e-04, 1.150e-04, 3.450e-04
gpu0, send: 3
(0, 0, 0, 0, 1, 'i', 'c'): 1.141e-04, 9.746e-05, 2.116e-04
(0, 0, 2, 0, 2, 'o', 'r'): 2.879e-04, 5.706e-05, 3.450e-04
(0, 0, 1, 0, 1, 'o', 'r'): 3.450e-04, 5.706e-05, 4.021e-04
gpu0, recv: 2
(0, 0, 1, 1, 0, 'i', 'r'): 0.000e+00, 5.706e-05, 5.706e-05
(0, 0, 2, 2, 0, 'i', 'r'): 5.706e-05, 5.706e-05, 1.141e-04
gpu1, comp: 3
(0, 0, 1, 1, 1): 0.000e+00, 1.150e-04, 1.150e-04
(0, 0, 2, 1, 1): 1.150e-04, 1.150e-04, 2.300e-04
(0, 0, 3, 0, 1): 2.300e-04, 1.150e-04, 3.450e-04
gpu1, send: 4
(0, 0, 1, 1, 0, 'i', 'r'): 0.000e+00, 5.706e-05, 5.706e-05
(0, 0, 1, 1, 2, 'i', 'c'): 5.706e-05, 9.746e-05, 1.545e-04
(0, 0, 2, 1, 2, 'o', 'r'): 2.300e-04, 5.706e-05, 2.871e-04
(0, 0, 3, 1, 3, 'o', 'r'): 3.450e-04, 5.706e-05, 4.021e-04
gpu1, recv: 4
(0, 0, 2, 2, 1, 'i', 'r'): 0.000e+00, 5.706e-05, 5.706e-05
(0, 0, 3, 3, 1, 'i', 'r'): 5.706e-05, 5.706e-05, 1.141e-04
(0, 0, 0, 0, 1, 'i', 'c'): 1.141e-04, 9.746e-05, 2.116e-04
(0, 0, 1, 0, 1, 'o', 'r'): 3.450e-04, 5.706e-05, 4.021e-04
gpu2, comp: 3
(0, 0, 3, 2, 2): 5.706e-05, 1.150e-04, 1.721e-04
(0, 0, 3, 1, 2): 1.721e-04, 1.150e-04, 2.871e-04
(0, 0, 2, 2, 2): 2.871e-04, 1.150e-04, 4.021e-04
gpu2, send: 3
(0, 0, 2, 2, 1, 'i', 'r'): 0.000e+00, 5.706e-05, 5.706e-05
(0, 0, 2, 2, 0, 'i', 'r'): 5.706e-05, 5.706e-05, 1.141e-04
(0, 0, 3, 2, 3, 'o', 'r'): 2.879e-04, 5.706e-05, 3.450e-04
gpu2, recv: 4
(0, 0, 3, 3, 2, 'i', 'r'): 0.000e+00, 5.706e-05, 5.706e-05
(0, 0, 1, 1, 2, 'i', 'c'): 5.706e-05, 9.746e-05, 1.545e-04
(0, 0, 2, 1, 2, 'o', 'r'): 2.300e-04, 5.706e-05, 2.871e-04
(0, 0, 2, 0, 2, 'o', 'r'): 2.879e-04, 5.706e-05, 3.450e-04
gpu3, comp: 1
(0, 0, 3, 3, 3): 0.000e+00, 1.150e-04, 1.150e-04
gpu3, send: 2
(0, 0, 3, 3, 2, 'i', 'r'): 0.000e+00, 5.706e-05, 5.706e-05
(0, 0, 3, 3, 1, 'i', 'r'): 5.706e-05, 5.706e-05, 1.141e-04
gpu3, recv: 2
(0, 0, 3, 2, 3, 'o', 'r'): 2.879e-04, 5.706e-05, 3.450e-04
(0, 0, 3, 1, 3, 'o', 'r'): 3.450e-04, 5.706e-05, 4.021e-04
objective=4.021e-04
+ set +x
